31760110500900358435013,15,1,2,02,8,1,2,04,6,1,2,03,10,1,2,08,11,1,2,012,12,1,2,04,3,1,2,010,2,1,2,014,2,1,2,08,4,1,2,03,7,1,2,015,11,1,2,07,11,1,2,010,7,1,2,012,1,1,2,014,14,1,2,015,15,1,2,07,1,1,2,010,1,1,2,014,2,1,2,08,5,1,2,04,4,1,2,01,14,1,2,012,11,1,2,06,13,1,2,07,8,1,2,07,11,1,2,03,7,1,2,012,8,1,2,010,8,1,2,02,9,1,2,011,11,1,2,09,3,1,2,015,14,1,2,012,10,1,2,014,7,1,2,01,9,1,2,04,1,1,2,09,1,1,2,03,3,1,2,010,10,1,2,04,8,1,2,07,12,1,2,07,9,1,2,015,2,1,2,01,11,1,2,06,13,1,2,01,8,1,2,015,12,1,2,05,1,1,2,0